nI = 4; % nb. sucursales
nK = 3; % types de machines
nS = 1;  % nb. scenarios (deterministe=1)

demande = array3d(1..4, 1..3, 1..1, [
% succursale A
10, 5, 3,
% succursale B
8, 6, 4,
% succursale C
6, 4, 5,
% succursale D
9, 5, 2
]);

prob = [1.0];

stock = [30, 25, 20];

capacite = [20, 15, 18, 17];

cout_rupture = [20.0, 15.0, 25.0];

cout_transport = array2d(1..4, 1..4, [
0.0, 17.39252713, 47.31278897, 40.4060439,
17.39252713, 0.0, 31.11269837, 33.45519392,
47.31278897, 31.11269837, 0.0, 29.61840644,
40.4060439, 33.45519392, 29.61840644, 0.0
]);

xFix = array2d(1..4, 1..3, [
-1, -1, -1,
-1, -1, -1,
-1, -1, -1,
-1, -1, -1
]);


